48
1000
695	1
693	1
681	1
678	1
675	1
661	1
651	1
641	1
629	1
627	1
595	1
583	1
571	1
482	1
469	1
467	1
462	1
459	1
444	1
421	2
414	1
411	1
404	1
403	1
402	1
398	1
392	1
376	1
361	1
355	1
344	1
327	1
307	2
296	1
291	1
270	1
269	1
246	1
236	1
214	1
205	1
198	1
195	1
157	1
152	1
149	1
136	1
107	1
